c nombre: 13
c densidad: 0.3
p edges 50 372
e 1 2
e 1 3
e 1 18
e 1 23
e 1 28
e 1 31
e 1 34
e 1 35
e 1 37
e 1 45
e 2 3
e 2 6
e 2 9
e 2 15
e 2 16
e 2 17
e 2 20
e 2 24
e 2 30
e 2 37
e 2 40
e 2 41
e 2 45
e 2 46
e 2 48
e 3 5
e 3 6
e 3 7
e 3 8
e 3 9
e 3 12
e 3 20
e 3 25
e 3 34
e 3 35
e 3 37
e 3 40
e 3 41
e 3 46
e 3 47
e 4 12
e 4 13
e 4 15
e 4 23
e 4 26
e 4 33
e 4 35
e 4 39
e 4 42
e 4 48
e 4 50
e 5 9
e 5 13
e 5 14
e 5 20
e 5 22
e 5 23
e 5 27
e 5 29
e 5 30
e 5 32
e 5 41
e 5 42
e 5 44
e 5 45
e 5 50
e 6 9
e 6 13
e 6 15
e 6 17
e 6 20
e 6 25
e 6 28
e 6 33
e 6 34
e 6 37
e 6 39
e 6 40
e 6 41
e 6 46
e 6 48
e 7 8
e 7 9
e 7 11
e 7 12
e 7 13
e 7 17
e 7 21
e 7 24
e 7 27
e 7 28
e 7 29
e 7 31
e 7 34
e 7 37
e 7 38
e 7 40
e 7 42
e 7 44
e 8 9
e 8 10
e 8 11
e 8 14
e 8 21
e 8 22
e 8 25
e 8 28
e 8 31
e 8 40
e 8 42
e 8 45
e 8 46
e 9 10
e 9 12
e 9 15
e 9 17
e 9 18
e 9 25
e 9 26
e 9 30
e 9 32
e 9 35
e 9 36
e 9 37
e 9 46
e 9 47
e 9 48
e 10 11
e 10 13
e 10 14
e 10 16
e 10 17
e 10 20
e 10 23
e 10 25
e 10 28
e 10 31
e 10 35
e 10 37
e 10 38
e 10 39
e 10 42
e 10 43
e 10 45
e 10 50
e 11 13
e 11 19
e 11 24
e 11 27
e 11 30
e 11 39
e 11 40
e 11 44
e 11 45
e 11 49
e 11 50
e 12 18
e 12 23
e 12 30
e 12 31
e 12 35
e 12 36
e 12 37
e 12 44
e 12 50
e 13 22
e 13 24
e 13 25
e 13 28
e 13 32
e 13 34
e 13 37
e 13 39
e 13 41
e 13 46
e 13 47
e 14 17
e 14 21
e 14 25
e 14 27
e 14 28
e 14 29
e 14 32
e 14 33
e 14 39
e 14 42
e 14 43
e 14 45
e 15 27
e 15 30
e 15 32
e 15 34
e 15 35
e 15 44
e 15 45
e 16 21
e 16 25
e 16 32
e 16 33
e 16 34
e 16 40
e 16 49
e 17 18
e 17 19
e 17 20
e 17 21
e 17 23
e 17 31
e 17 33
e 17 39
e 17 44
e 17 46
e 17 47
e 17 48
e 18 19
e 18 21
e 18 25
e 18 34
e 18 40
e 18 41
e 18 42
e 18 43
e 18 49
e 19 22
e 19 28
e 19 30
e 19 31
e 19 37
e 19 39
e 19 42
e 19 44
e 20 29
e 20 30
e 20 36
e 20 44
e 20 46
e 20 50
e 21 24
e 21 26
e 21 34
e 21 35
e 21 39
e 21 41
e 21 43
e 21 47
e 22 24
e 22 27
e 22 28
e 22 30
e 22 36
e 22 40
e 22 42
e 22 44
e 22 46
e 22 48
e 23 27
e 23 30
e 23 33
e 23 37
e 23 39
e 23 40
e 23 43
e 23 46
e 24 25
e 24 26
e 24 27
e 24 28
e 24 32
e 24 34
e 24 36
e 24 40
e 24 41
e 24 43
e 24 45
e 24 47
e 24 49
e 25 28
e 25 30
e 25 31
e 25 34
e 25 36
e 25 40
e 25 41
e 25 46
e 25 49
e 26 30
e 26 34
e 26 35
e 26 38
e 26 43
e 27 29
e 27 31
e 27 39
e 27 44
e 27 46
e 27 47
e 28 29
e 28 31
e 28 39
e 28 40
e 28 45
e 28 48
e 28 50
e 29 36
e 29 38
e 29 39
e 29 41
e 29 42
e 30 31
e 30 39
e 30 40
e 30 41
e 30 48
e 31 33
e 31 34
e 31 38
e 31 40
e 31 44
e 31 45
e 31 46
e 31 49
e 32 34
e 32 38
e 32 45
e 33 39
e 33 42
e 33 43
e 33 45
e 34 35
e 34 40
e 34 41
e 34 42
e 34 45
e 34 46
e 35 36
e 35 37
e 35 39
e 35 41
e 35 44
e 35 49
e 35 50
e 36 37
e 36 41
e 36 42
e 36 50
e 37 40
e 37 44
e 38 42
e 38 45
e 38 46
e 38 48
e 38 49
e 38 50
e 39 41
e 39 46
e 39 47
e 39 48
e 40 48
e 40 49
e 41 45
e 41 50
e 42 43
e 42 45
e 42 47
e 42 50
e 43 48
e 44 47
e 44 49
e 45 50
e 46 47
e 46 49
e 47 49
